10
0 12 15 18 20 22 25 28 30 32
12 0 10 14 16 18 20 24 26 28
15 10 0 8 12 14 18 20 22 24
18 14 8 0 6 10 14 16 18 20
20 16 12 6 0 8 12 14 16 18
22 18 14 10 8 0 6 10 12 14
25 20 18 14 12 6 0 8 10 12
28 24 20 16 14 10 8 0 6 10
30 26 22 18 16 12 10 6 0 8
32 28 24 20 18 14 12 10 8 0
0 0 300 0
1 8 100 5
2 16 110 4
3 24 120 6
4 32 130 5
5 40 140 4
6 48 150 5
7 56 160 6
8 64 170 4
9 72 180 5
